networks/zoo_22_72/zoo_22_72.sol
<?xml version = "1.0" encoding="UTF-8" standalone="yes"?>
<CPLEXSolution version="1.2">
 <header
   problemName="networks/zoo_22_72/zoo_22_72.lp"
   solutionName="incumbent"
   solutionIndex="-1"
   objectiveValue="10"
   solutionTypeValue="3"
   solutionTypeString="primal"
   solutionStatusValue="101"
   solutionStatusString="integer optimal solution"
   solutionMethodString="mip"
   primalFeasible="1"
   dualFeasible="1"
   MIPNodes="0"
   MIPIterations="112"
   writeLevel="3"/>
 <quality
   epInt="1.0000000000000001e-05"
   epRHS="9.9999999999999995e-07"
   maxIntInfeas="0"
   maxPrimalInfeas="0"
   maxX="3"
   maxSlack="9"/>
 <variables>
  <variable name="Y(1,2)" index="1" value="1"/>
  <variable name="Y(7,8)" index="127" value="1"/>
  <variable name="Y(15,7)" index="286" value="1"/>
  <variable name="Y(18,1)" index="340" value="1"/>
  <variable name="Y(32,6)" index="625" value="1"/>
  <variable name="Y(40,5)" index="784" value="1"/>
  <variable name="Y(46,3)" index="902" value="1"/>
  <variable name="Y(59,9)" index="1168" value="1"/>
  <variable name="Y(68,10)" index="1349" value="1"/>
  <variable name="Y(72,4)" index="1423" value="1"/>
  <variable name="X(1,2,1)" index="1440" value="1"/>
  <variable name="X(1,3,46)" index="1557" value="1"/>
  <variable name="X(1,4,15)" index="1598" value="1"/>
  <variable name="X(1,5,40)" index="1695" value="1"/>
  <variable name="X(1,6,32)" index="1759" value="1"/>
  <variable name="X(1,13,18)" index="1817" value="1"/>
  <variable name="X(2,1,15)" index="1886" value="1"/>
  <variable name="X(2,14,1)" index="1944" value="1"/>
  <variable name="X(3,1,18)" index="2033" value="1"/>
  <variable name="X(3,15,46)" index="2133" value="1"/>
  <variable name="X(4,1,46)" index="2205" value="1"/>
  <variable name="X(4,7,15)" index="2246" value="1"/>
  <variable name="X(4,9,59)" index="2362" value="1"/>
  <variable name="X(4,10,68)" index="2443" value="1"/>
  <variable name="X(4,16,72)" index="2519" value="1"/>
  <variable name="X(5,1,32)" index="2551" value="1"/>
  <variable name="X(5,17,40)" index="2631" value="1"/>
  <variable name="X(6,1,40)" index="2703" value="1"/>
  <variable name="X(6,18,32)" index="2767" value="1"/>
  <variable name="X(7,4,59)" index="2866" value="1"/>
  <variable name="X(7,8,7)" index="2886" value="1"/>
  <variable name="X(7,19,15)" index="2966" value="1"/>
  <variable name="X(8,7,59)" index="3082" value="1"/>
  <variable name="X(8,20,7)" index="3102" value="1"/>
  <variable name="X(9,4,68)" index="3235" value="1"/>
  <variable name="X(9,21,59)" index="3298" value="1"/>
  <variable name="X(10,4,72)" index="3383" value="1"/>
  <variable name="X(10,22,68)" index="3451" value="1"/>
  <variable name="C(1,2)" index="3457" value="1"/>
  <variable name="C(7,8)" index="3472" value="1"/>
  <variable name="C(15,1)" index="3494" value="1"/>
  <variable name="C(15,4)" index="3495" value="2"/>
  <variable name="C(15,7)" index="3496" value="3"/>
  <variable name="C(18,1)" index="3506" value="1"/>
  <variable name="C(32,1)" index="3545" value="1"/>
  <variable name="C(32,6)" index="3546" value="2"/>
  <variable name="C(40,1)" index="3571" value="1"/>
  <variable name="C(40,5)" index="3572" value="2"/>
  <variable name="C(46,1)" index="3594" value="1"/>
  <variable name="C(46,3)" index="3595" value="2"/>
  <variable name="C(59,7)" index="3642" value="1"/>
  <variable name="C(59,4)" index="3643" value="2"/>
  <variable name="C(59,9)" index="3644" value="3"/>
  <variable name="C(68,4)" index="3674" value="1"/>
  <variable name="C(68,10)" index="3675" value="2"/>
  <variable name="C(72,4)" index="3688" value="1"/>
 </variables>
</CPLEXSolution>
